# Solution for model Path_planning
# Objective value = 2.2068280263435735e+01
U_0 0
ux_0 0
uy_0 0
uz_0 0
Vx_0 1.7849999977660749e-01
Vy_0 -2.0660000001117567e+00
Vz_0 9.1749999959021977e-01
Px_0 8.913
Py_0 14.642
Pz_0 0.41
U_1 5.7249563888391686e-01
ux_1 -1.3387499979886675e-01
uy_1 2.2944640984047915e-01
uz_1 -5.2462499943562069e-01
Vx_1 1.7849999977660749e-01
Vy_1 -2.0660000001117567e+00
Vz_1 9.1749999959021977e-01
Px_1 9.2699999995532156e+00
Py_1 1.0509999999776486e+01
Pz_1 2.2449999991804397e+00
U_2 2.2583966240252193e-01
ux_2 4.4624999910563005e-02
uy_2 2.1716077082873397e-01
uz_2 6.5874999640510787e-02
Vx_2 -8.9249999821126025e-02
Vy_2 -1.6071071804307984e+00
Vz_2 -1.3174999928102160e-01
Px_2 9.3592499995086982e+00
Py_2 6.8368928192339240e+00
Pz_2 3.0307499994896379e+00
U_3 5.6191936736895387e-01
ux_3 -4.1632229289515976e-01
uy_3 5.5258922903156815e-01
uz_3 -1.0224999999627471e-01
Vx_3 0
Vy_3 -1.1727856387733304e+00
Vz_3 0
Px_3 9.2699999996875704e+00
Py_3 4.0570000000298023e+00
Pz_3 2.8990000002086163e+00
U_4 1.0740275617918915e-01
ux_4 -5.0603312120185961e-01
uy_4 3.3803590355097057e-02
uz_4 1.0224999999627471e-01
Vx_4 -8.3264458579031952e-01
Vy_4 -6.7607180710194115e-02
Vz_4 -2.0449999999254942e-01
Px_4 8.4373554138972509e+00
Py_4 2.8166071805462778e+00
Pz_4 2.6945000002160668e+00
U_5 4.5275297130503556e-01
ux_5 6.1228312138766938e-01
uy_5 4.4899199103394594e-01
uz_5 -6.3500000163912773e-02
Vx_5 -1.8447108281940245e+00
Vy_5 0
Vz_5 0
Px_5 5.7599999999129068e+00
Py_5 2.7489999998360872e+00
Pz_5 2.4900000002235174e+00
U_6 3.2626309079514970e-01
ux_6 3.1007229270934999e-01
uy_6 3.2002402726324064e-01
uz_6 6.3500000163912773e-02
Vx_6 -6.2014458541869999e-01
Vy_6 8.9798398206789187e-01
Vz_6 -1.2700000032782555e-01
Px_6 3.2951445863001823e+00
Py_6 3.6469839819039791e+00
Pz_6 2.3629999998956919e+00
U_7 3.4981270702042315e-02
ux_7 2.7999999933854269e-02
uy_7 1.6569845192570654e-02
uz_7 3.0999999959021807e-02
Vx_7 0
Vy_7 1.5380320365943732e+00
Vz_7 0
Px_7 2.6750000008814823e+00
Py_7 6.0830000005662441e+00
Pz_7 2.2359999995678663e+00
U_8 4.8630285433631897e-02
ux_8 -2.7999999933854269e-02
uy_8 -3.7773609243295425e-02
uz_8 -3.0999999959021807e-02
Vx_8 5.5999999867708539e-02
Vy_8 1.5711717269795145e+00
Vz_8 6.1999999918043613e-02
Px_8 2.7310000007491908e+00
Py_8 9.1922037641401317e+00
Pz_8 2.2979999994859099e+00
U_9 9.9862393694141760e-01
ux_9 9.0437499992503945e-01
uy_9 -9.5021838143116000e-01
uz_9 -3.1550000002607703e-01
Vx_9 0
Vy_9 1.4956245084929236e+00
Vz_9 0
Px_9 2.7870000006168993e+00
Py_9 1.2258999999612570e+01
Pz_9 2.3599999994039536e+00
U_10 3.1550000002607698e-01
ux_10 -9.0437499992503945e-01
uy_10 2.1156127277830450e-02
uz_10 3.1550000002607703e-01
Vx_10 1.8087499998500789e+00
Vy_10 -4.0481225436939638e-01
Vz_10 -6.3100000005215406e-01
Px_10 4.5957500004669782e+00
Py_10 1.3349812253736104e+01
Pz_10 1.7289999993517995e+00
U_11 0
ux_11 0
uy_11 0
uz_11 0
Vx_11 0
Vy_11 -3.6249999981373549e-01
Vz_11 0
Px_11 6.4045000003170571e+00
Py_11 1.2582499999552965e+01
Pz_11 1.0979999992996454e+00
U_12 1.1001874353315991e-01
ux_12 -6.3244802648260645e-01
uy_12 -9.6257031091973033e-03
uz_12 -1.1246663687032310e-03
Vx_12 0
Vy_12 -3.6249999981373549e-01
Vz_12 0
Px_12 6.4045000003170571e+00
Py_12 1.1857499999925494e+01
Pz_12 1.0979999992996454e+00
U_13 7.2563015859092272e-01
ux_13 1.5009407929467500e-01
uy_13 -6.7487359393620316e-01
uz_13 2.6687399945628876e-01
Vx_13 -1.2648960529652129e+00
Vy_13 -3.8175140603213009e-01
Vz_13 -2.2493327374064620e-03
Px_13 5.1396039473518442e+00
Py_13 1.1113248594079629e+01
Pz_13 1.0957506665622390e+00
U_14 9.0154566736165431e-01
ux_14 2.4647078943722249e+00
uy_14 8.6574929695226888e-01
uz_14 -2.6574866592184976e-01
Vx_14 -9.6470789437585935e-01
Vy_14 -1.7314985939045378e+00
Vz_14 5.3149866617516950e-01
Px_14 2.9100000000107684e+00
Py_14 8.9999985941429568e+00
Pz_14 1.625
U_15 5.5761075450386244e-01
ux_15 -2.9197078944430892e+00
uy_15 4.9999999999991829e-01
uz_15 -2.5000066716535485e-01
Vx_15 3.9647078943685869e+00
Vy_15 0
Vz_15 1.3343314699820752e-06
Px_15 5.9100000000034925e+00
Py_15 7.2685000002384186e+00
Pz_15 2.1565000005066395e+00
U_16 8.4337500017152678e-01
ux_16 1.6342809211211460e+00
uy_16 8.4337500017152678e-01
uz_16 6.3374666326964757e-02
Vx_16 -1.8747078945175986e+00
Vy_16 9.9999999999983658e-01
Vz_16 -4.9999999999923972e-01
Px_16 7.9999999998544808e+00
Py_16 8.2685000002382552e+00
Pz_16 1.6565013348388697e+00
U_17 1.3539712226724059e+00
ux_17 -6.9692697386234670e-01
uy_17 -1.3433750001714451e+00
uz_17 1.8662533367265510e-01
Vx_17 1.3938539477246934e+00
Vy_17 2.6867500003428901e+00
Vz_17 -3.7325066734531021e-01
Px_17 7.5191460530616041e+00
Py_17 1.1955250000580982e+01
Pz_17 7.8325066749432182e-01
U_18 0
ux_18 0
uy_18 0
uz_18 0
Vx_18 0
Vy_18 0
Vz_18 0
Px_18 8.9130000007862691e+00
Py_18 1.4642000000923872e+01
Pz_18 4.1000000014901161e-01
U_19 0
ux_19 0
uy_19 0
uz_19 0
Vx_19 0
Vy_19 0
Vz_19 0
Px_19 8.9130000007862691e+00
Py_19 1.4642000000923872e+01
Pz_19 4.1000000014901161e-01
U_20 0
ux_20 0
uy_20 0
uz_20 0
Vx_20 0
Vy_20 0
Vz_20 0
Px_20 8.9130000007862691e+00
Py_20 1.4642000000923872e+01
Pz_20 4.1000000014901161e-01
U_21 0
ux_21 0
uy_21 0
uz_21 0
Vx_21 0
Vy_21 0
Vz_21 0
Px_21 8.9130000007862691e+00
Py_21 1.4642000000923872e+01
Pz_21 4.1000000014901161e-01
U_22 0
ux_22 0
uy_22 0
uz_22 0
Vx_22 0
Vy_22 0
Vz_22 0
Px_22 8.9130000007862691e+00
Py_22 1.4642000000923872e+01
Pz_22 4.1000000014901161e-01
U_23 0
ux_23 0
uy_23 0
uz_23 0
Vx_23 0
Vy_23 0
Vz_23 0
Px_23 8.9130000007862691e+00
Py_23 1.4642000000923872e+01
Pz_23 4.1000000014901161e-01
U_24 0
ux_24 0
uy_24 0
uz_24 0
Vx_24 0
Vy_24 0
Vz_24 0
Px_24 8.9130000007862691e+00
Py_24 1.4642000000923872e+01
Pz_24 4.1000000014901161e-01
U_25 0
ux_25 0
uy_25 0
uz_25 0
Vx_25 0
Vy_25 0
Vz_25 0
Px_25 8.9130000007862691e+00
Py_25 1.4642000000923872e+01
Pz_25 4.1000000014901161e-01
b_0_0 0
b_0_1 0
b_0_2 0
b_0_3 0
b_0_4 0
b_0_5 0
b_0_6 0
b_0_7 0
b_0_8 0
b_0_9 0
b_0_10 0
b_0_11 0
b_0_12 0
b_0_13 0
b_0_14 0
b_0_15 0
b_0_16 0
b_0_17 0
b_0_18 0
b_0_19 0
b_0_20 0
b_0_21 0
b_0_22 0
b_0_23 0
b_0_24 0
b_0_25 0
b_1_0 0
b_1_1 1
b_1_2 0
b_1_3 0
b_1_4 0
b_1_5 0
b_1_6 0
b_1_7 0
b_1_8 0
b_1_9 0
b_1_10 0
b_1_11 0
b_1_12 0
b_1_13 0
b_1_14 0
b_1_15 0
b_1_16 0
b_1_17 0
b_1_18 0
b_1_19 0
b_1_20 0
b_1_21 0
b_1_22 0
b_1_23 0
b_1_24 0
b_1_25 0
b_2_0 0
b_2_1 0
b_2_2 0
b_2_3 1
b_2_4 0
b_2_5 0
b_2_6 0
b_2_7 0
b_2_8 0
b_2_9 0
b_2_10 0
b_2_11 0
b_2_12 0
b_2_13 0
b_2_14 0
b_2_15 0
b_2_16 0
b_2_17 0
b_2_18 0
b_2_19 0
b_2_20 0
b_2_21 0
b_2_22 0
b_2_23 0
b_2_24 0
b_2_25 0
b_3_0 0
b_3_1 0
b_3_2 0
b_3_3 0
b_3_4 0
b_3_5 1
b_3_6 0
b_3_7 0
b_3_8 0
b_3_9 0
b_3_10 0
b_3_11 0
b_3_12 0
b_3_13 0
b_3_14 0
b_3_15 0
b_3_16 0
b_3_17 0
b_3_18 0
b_3_19 0
b_3_20 0
b_3_21 0
b_3_22 0
b_3_23 0
b_3_24 0
b_3_25 0
b_4_0 0
b_4_1 0
b_4_2 0
b_4_3 0
b_4_4 0
b_4_5 0
b_4_6 0
b_4_7 1
b_4_8 0
b_4_9 0
b_4_10 0
b_4_11 0
b_4_12 0
b_4_13 0
b_4_14 0
b_4_15 0
b_4_16 0
b_4_17 0
b_4_18 0
b_4_19 0
b_4_20 0
b_4_21 0
b_4_22 0
b_4_23 0
b_4_24 0
b_4_25 0
b_5_0 0
b_5_1 0
b_5_2 0
b_5_3 0
b_5_4 0
b_5_5 0
b_5_6 0
b_5_7 0
b_5_8 0
b_5_9 1
b_5_10 0
b_5_11 0
b_5_12 0
b_5_13 0
b_5_14 0
b_5_15 0
b_5_16 0
b_5_17 0
b_5_18 0
b_5_19 0
b_5_20 0
b_5_21 0
b_5_22 0
b_5_23 0
b_5_24 0
b_5_25 0
b_6_0 0
b_6_1 0
b_6_2 0
b_6_3 0
b_6_4 0
b_6_5 0
b_6_6 0
b_6_7 0
b_6_8 0
b_6_9 0
b_6_10 0
b_6_11 1
b_6_12 0
b_6_13 0
b_6_14 0
b_6_15 0
b_6_16 0
b_6_17 0
b_6_18 0
b_6_19 0
b_6_20 0
b_6_21 0
b_6_22 0
b_6_23 0
b_6_24 0
b_6_25 0
b_7_0 0
b_7_1 0
b_7_2 0
b_7_3 0
b_7_4 0
b_7_5 0
b_7_6 0
b_7_7 0
b_7_8 0
b_7_9 0
b_7_10 0
b_7_11 0
b_7_12 1
b_7_13 0
b_7_14 0
b_7_15 0
b_7_16 0
b_7_17 0
b_7_18 0
b_7_19 0
b_7_20 0
b_7_21 0
b_7_22 0
b_7_23 0
b_7_24 0
b_7_25 0
b_8_0 0
b_8_1 0
b_8_2 0
b_8_3 0
b_8_4 0
b_8_5 0
b_8_6 0
b_8_7 0
b_8_8 0
b_8_9 0
b_8_10 0
b_8_11 0
b_8_12 0
b_8_13 0
b_8_14 1
b_8_15 0
b_8_16 0
b_8_17 0
b_8_18 0
b_8_19 0
b_8_20 0
b_8_21 0
b_8_22 0
b_8_23 0
b_8_24 0
b_8_25 0
b_9_0 0
b_9_1 0
b_9_2 0
b_9_3 0
b_9_4 0
b_9_5 0
b_9_6 0
b_9_7 0
b_9_8 0
b_9_9 0
b_9_10 0
b_9_11 0
b_9_12 0
b_9_13 0
b_9_14 0
b_9_15 1
b_9_16 0
b_9_17 0
b_9_18 0
b_9_19 0
b_9_20 0
b_9_21 0
b_9_22 0
b_9_23 0
b_9_24 0
b_9_25 0
b_10_0 0
b_10_1 0
b_10_2 0
b_10_3 0
b_10_4 0
b_10_5 0
b_10_6 0
b_10_7 0
b_10_8 0
b_10_9 0
b_10_10 0
b_10_11 0
b_10_12 0
b_10_13 0
b_10_14 0
b_10_15 0
b_10_16 1
b_10_17 0
b_10_18 0
b_10_19 0
b_10_20 0
b_10_21 0
b_10_22 0
b_10_23 0
b_10_24 0
b_10_25 0
b_11_0 0
b_11_1 0
b_11_2 0
b_11_3 0
b_11_4 0
b_11_5 0
b_11_6 0
b_11_7 0
b_11_8 0
b_11_9 0
b_11_10 0
b_11_11 0
b_11_12 0
b_11_13 0
b_11_14 0
b_11_15 0
b_11_16 0
b_11_17 0
b_11_18 1
b_11_19 0
b_11_20 0
b_11_21 0
b_11_22 0
b_11_23 0
b_11_24 0
b_11_25 0
Tsim 36
